expected_failures_A=30;
expected_failures_B=30;
expected_failures_C=22;
s=3;
hints=[|
0,0,0,0,1,0,0,0,0|
3,0,1,4,0,0,8,6,0|
9,0,0,5,0,0,2,0,0|
7,0,0,1,6,0,0,0,0|
0,2,0,8,0,5,0,1,0|
0,0,0,0,9,7,0,0,4|
0,0,3,0,0,4,0,0,6|
0,4,8,0,0,6,9,0,7|
0,0,0,0,8,0,0,0,0|];
